[ma. 03. april 15:08:56 +0200 2023]  ./input/alternate_g_np/50-1-4.gcc
Set parameter Username
Academic license - for non-commercial use only - expires 2024-03-28
Set parameter TimeLimit to value 1800
Set parameter PreCrush to value 1
Set parameter LazyConstraints to value 1
Gurobi Optimizer version 10.0.1 build v10.0.1rc0 (linux64)

CPU model: AMD Ryzen 9 5950X 16-Core Processor, instruction set [SSE2|AVX|AVX2]
Thread count: 16 physical cores, 32 logical processors, using up to 32 threads

Optimize a model with 52 rows, 150 columns and 350 nonzeros
Model fingerprint: 0x7360603f
Variable types: 0 continuous, 150 integer (150 binary)
Coefficient statistics:
  Matrix range     [1e+00, 1e+00]
  Objective range  [7e+00, 1e+02]
  Bounds range     [1e+00, 1e+00]
  RHS range        [1e+00, 1e+00]
Presolve time: 0.00s
Presolved: 52 rows, 150 columns, 350 nonzeros
Variable types: 0 continuous, 150 integer (150 binary)

Root relaxation: objective 2.729000e+03, 2 iterations, 0.00 seconds (0.00 work units)

    Nodes    |    Current Node    |     Objective Bounds      |     Work
 Expl Unexpl |  Obj  Depth IntInf | Incumbent    BestBd   Gap | It/Node Time

     0     0 2729.00000    0    2          - 2729.00000      -     -    0s
     0     0 2729.00000    0    8          - 2729.00000      -     -    0s
     0     0 2729.00000    0    -          - 2729.00000      -     -    0s
     0     0 2729.00000    0    -          - 2729.00000      -     -    0s
     0     0 2729.00000    0   14          - 2729.00000      -     -    0s
     0     0 2729.00000    0    -          - 2729.00000      -     -    0s
     0     0 2729.00000    0    -          - 2729.00000      -     -    0s
     0     0 2729.00000    0   12          - 2729.00000      -     -    0s
     0     0 2729.00000    0    -          - 2729.00000      -     -    0s
     0     0 2729.00000    0   14          - 2729.00000      -     -    0s
     0     2 2729.00000    0    6          - 2729.00000      -     -    0s
*10934  3721              24     270.0000000 1992.25000   638%   9.4    1s
*19160  7272              26     355.0000000 1835.00000   417%   9.4    2s
*28947 11053              37     395.0000000 1711.00000   333%  10.6    3s
*30830 11510              41     452.0000000 1699.00000   276%  11.0    3s
 48742 18894 1193.00000   49   36  452.00000 1505.00000   233%  12.2    5s
*57613 18572              37     508.0000000  681.55556  34.2%  12.2    6s
*57738 17585              42     524.0000000  653.25000  24.7%  12.2    6s

Cutting planes:
  User: 61
  Lazy constraints: 206

Explored 58578 nodes (709479 simplex iterations) in 6.20 seconds (2.40 work units)
Thread count was 32 (of 32 available processors)

Solution count 6: 524 508 452 ... 270

Optimal solution found (tolerance 1.00e-04)
Best objective 5.240000000000e+02, best bound 5.240000000000e+02, gap 0.0000%

User-callback calls 118900, time in user-callback 1.69 sec
Minimal separator inequalities added: 127691
Indegree inequalities added: 0
Passed solution check
[ma. 03. april 15:09:02 +0200 2023]  done

